MIP Solved Using Gurobi/MIP.lp
\ LP format - for model browsing. Use MPS format to capture full model detail.
Minimize
  x_0 + 6 x_1 + 5 x_2 + 7 x_3 + 9 y_0 + 3 y_1 + 2 y_3 + 3 y_4
Subject To
 R0: - 2 x_1 + 3 x_2 + 2 x_3 + 3 y_0 + 4 y_1 + 2 y_2 - 5 y_4 <= -3
 R1: - 5 x_0 - 3 x_2 + x_3 + 2 y_1 + 3 y_2 - 2 y_3 + y_4 <= -4
 R2: x_0 + 4 x_2 - 2 x_3 + 2 y_0 + y_2 - 3 y_3 - 5 y_4 <= 1
 R3: - 3 x_1 + 4 x_2 - x_3 - 5 y_0 + 3 y_1 - 2 y_2 - 3 y_3 <= 4
 R4: - 5 x_0 - 4 x_1 + 3 x_2 - 2 y_0 + 3 y_1 - y_2 + 2 y_3 - 4 y_4 <= 5
Bounds
Binaries
 x_0 x_1 x_2 x_3
End
