MIP Solved Using Gurobi/MIP.sol
# Objective value = 2.8
x_0 1
x_1 0
x_2 0
x_3 0
y_0 0
y_1 0
y_2 0
y_3 0
y_4 0.6
